724 0 118.48
0 0 0
0 5 41
0 10 16
0 17 21
0 19 34
0 20 36
0 30 22
1 0 50
2 16 20
3 29 24
4 11 33
5 25 17
6 7 6
7 28 26
8 13 14
9 2 6
10 0 16
11 0 32
12 3 5
13 23 21
14 27 6
15 22 8
16 0 38
17 14 33
18 26 20
19 8 6
20 6 29
21 4 7
22 9 13
23 21 17
24 0 28
25 12 9
26 15 30
27 1 11
28 24 10
29 0 12
30 18 7
# data
31
49 51 0
30 98 27
85 13 12
14 58 32
75 96 25
11 35 19
4 4 15
4 10 28
82 74 4
83 7 33
65 53 37
44 83 16
11 53 34
94 66 10
13 92 31
98 18 9
83 33 6
35 67 38
77 45 31
76 73 14
29 20 34
82 98 28
96 10 17
96 87 30
24 38 29
2 50 40
97 48 11
19 94 38
14 34 33
38 57 15
70 44 10
